 &CONTROL
    calculation='scf'
    restart_mode='from_scratch',
    prefix='Methane'
    pseudo_dir = './pseudo'
    outdir='./out'
 /
 &SYSTEM
    ibrav = 1,
    celldm(1) = 20,
    nat = 5,
    ntyp = 2,
    ecutwfc = 50,
    nbnd = 20,
 /
 &ELECTRONS
    diagonalization='david'
    mixing_mode = 'plain',
    mixing_beta = 0.6,
    conv_thr =  1.0d-8
 /
ATOMIC_SPECIES
H  1.0  H.blyp-vbc.UPF
C 12.01  C.blyp-mt.UPF
ATOMIC_POSITIONS {Angstrom}
C   0.000000000   0.000000000   0.000000000
H   0.642814093   0.642814093   0.642814093
H  -0.642814093  -0.642814093   0.642814093
H   0.642814093  -0.642814093  -0.642814093
H  -0.642814093   0.642814093  -0.642814093
K_POINTS {gamma}
